NAME : input100_6.txt .out.tour
COMMENT : Tour for input100_6.txt .tsp (Length 995.872)
TYPE : TOUR
DIMENSION : 100
TOUR_SECTION
1
52
84
30
80
27
4
59
76
29
19
93
45
100
86
99
81
20
56
11
38
58
5
79
75
35
77
51
6
9
46
54
26
64
21
65
95
28
70
24
17
62
74
98
68
50
10
14
91
66
8
57
90
41
48
67
85
92
33
55
83
96
13
7
94
43
12
32
49
63
37
47
87
42
82
39
97
78
25
2
3
18
44
72
73
22
31
15
23
71
40
16
53
89
36
34
61
69
60
88
1
